
Gurobi 12.0.3 (linux64) logging started Mon Aug 18 01:12:45 2025

Set parameter LogFile to value "logs/instance-06.txt"
Gurobi Optimizer version 12.0.3 build v12.0.3rc0 (linux64 - "Ubuntu 24.04.3 LTS")

CPU model: Intel(R) Core(TM) i5-8250U CPU @ 1.60GHz, instruction set [SSE2|AVX|AVX2]
Thread count: 4 physical cores, 8 logical processors, using up to 8 threads

Non-default parameters:
TimeLimit  900

Optimize a model with 3725 rows, 1275 columns and 9866 nonzeros
Model fingerprint: 0xb42e0ac1
Variable types: 1225 continuous, 50 integer (50 binary)
Coefficient statistics:
  Matrix range     [1e+00, 1e+00]
  Objective range  [1e+00, 1e+01]
  Bounds range     [1e+00, 1e+00]
  RHS range        [1e+00, 1e+00]
Found heuristic solution: objective -200.0000000
Found heuristic solution: objective -1.0000000
Presolve removed 1952 rows and 66 columns
Presolve time: 0.03s
Presolved: 1773 rows, 1209 columns, 5332 nonzeros
Variable types: 1159 continuous, 50 integer (50 binary)

Root relaxation: objective 1.537500e+03, 876 iterations, 0.03 seconds (0.03 work units)

    Nodes    |    Current Node    |     Objective Bounds      |     Work
 Expl Unexpl |  Obj  Depth IntInf | Incumbent    BestBd   Gap | It/Node Time

     0     0 1537.50000    0   50   -1.00000 1537.50000      -     -    0s
H    0     0                     392.0000000 1537.50000   292%     -    0s
H    0     0                     396.0000000 1537.50000   288%     -    0s
     0     0  963.12500    0   50  396.00000  963.12500   143%     -    0s
     0     0  737.38538    0   50  396.00000  737.38538  86.2%     -    1s
     0     0  672.37097    0   50  396.00000  672.37097  69.8%     -    2s
H    0     0                     405.0000000  659.42455  62.8%     -    2s
     0     0  659.42455    0   50  405.00000  659.42455  62.8%     -    2s
H    0     0                     412.0000000  657.06375  59.5%     -    3s
     0     0  657.06375    0   50  412.00000  657.06375  59.5%     -    3s
H    0     0                     434.0000000  656.02184  51.2%     -    3s
     0     0  656.02184    0   50  434.00000  656.02184  51.2%     -    3s
H    0     0                     437.0000000  655.37341  50.0%     -    3s
     0     0  655.37341    0   50  437.00000  655.37341  50.0%     -    3s
H    0     0                     439.0000000  654.98046  49.2%     -    3s
     0     0  654.98046    0   50  439.00000  654.98046  49.2%     -    3s
H    0     0                     452.0000000  644.91667  42.7%     -    3s
H    0     0                     457.0000000  644.91667  41.1%     -    3s
     0     0  644.91667    0   49  457.00000  644.91667  41.1%     -    3s
     0     0  643.91667    0   48  457.00000  643.91667  40.9%     -    3s
H    0     0                     470.0000000  643.91667  37.0%     -    3s
H    0     0                     478.0000000  640.15383  33.9%     -    4s
H    0     0                     488.0000000  640.15383  31.2%     -    4s
     0     0  640.15383    0   50  488.00000  640.15383  31.2%     -    4s
     0     2  640.13455    0   50  488.00000  640.13455  31.2%     -    5s
    28    37  548.85313    5   45  488.00000  605.22957  24.0%  1852   10s
H   31    37                     509.0000000  605.22957  18.9%  1827   10s
*   42    39              12     519.0000000  605.22957  16.6%  1587   11s
*   51    45              10     535.0000000  605.22957  13.1%  1396   11s
H   63    44                     549.0000000  604.34576  10.1%  1308   12s
H   67    47                     551.0000000  604.34576  9.68%  1293   13s
*   76    48               9     558.0000000  591.48018  6.00%  1236   14s
    99    42     cutoff    7       558.00000  589.10414  5.57%  1068   15s

Cutting planes:
  Gomory: 1
  MIR: 82
  Flow cover: 125
  RLT: 575
  BQP: 1870

Explored 165 nodes (139598 simplex iterations) in 16.50 seconds (20.13 work units)
Thread count was 8 (of 8 available processors)

Solution count 10: 558 551 549 ... 457

Optimal solution found (tolerance 1.00e-04)
Best objective 5.580000000000e+02, best bound 5.580000000000e+02, gap 0.0000%
